Welcome to the CBC MILP Solver 
Version: 2.10.3 
Build Date: Dec 15 2019 

command line - /home/cdmonsalvea/AI_OR_Workflow/.venv/lib/python3.10/site-packages/pulp/solverdir/cbc/linux/64/cbc /tmp/9bbe3b60bbbe464699e370d6527aa709-pulp.mps -sec 3600 -timeMode elapsed -branch -printingOptions all -solution /tmp/9bbe3b60bbbe464699e370d6527aa709-pulp.sol (default strategy 1)
At line 2 NAME          MODEL
At line 3 ROWS
At line 11 COLUMNS
At line 48 RHS
At line 55 BOUNDS
At line 59 ENDATA
Problem MODEL has 6 rows, 12 columns and 21 elements
Coin0008I MODEL read with 0 errors
seconds was changed from 1e+100 to 3600
Option for timeMode changed from cpu to elapsed
Continuous objective value is 1.22939e+06 - 0.00 seconds
Cgl0004I processed model has 6 rows, 12 columns (3 integer (3 of which binary)) and 21 elements
Cbc0038I Initial state - 3 integers unsatisfied sum - 0.395151
Cbc0038I Pass   1: suminf.    0.39515 (1) obj. 2.50978e+07 iterations 2
Cbc0038I Solution found of 2.69796e+07
Cbc0038I Relaxing continuous gives 2.69796e+07
Cbc0038I Before mini branch and bound, 0 integers at bound fixed and 4 continuous
Cbc0038I Full problem 6 rows 12 columns, reduced to 5 rows 6 columns
Cbc0038I Mini branch and bound improved solution from 2.69796e+07 to 9.33361e+06 (0.00 seconds)
Cbc0038I Round again with cutoff of 8.52319e+06
Cbc0038I Pass   2: suminf.    0.39515 (3) obj. 8.52319e+06 iterations 2
Cbc0038I Pass   3: suminf.    0.26048 (1) obj. 8.52319e+06 iterations 3
Cbc0038I Pass   4: suminf.    0.02552 (1) obj. 8.52319e+06 iterations 1
Cbc0038I Pass   5: suminf.    0.01366 (1) obj. 8.52319e+06 iterations 2
Cbc0038I Pass   6: suminf.    0.02552 (1) obj. 8.52319e+06 iterations 2
Cbc0038I Pass   7: suminf.    0.02552 (1) obj. 8.52319e+06 iterations 0
Cbc0038I Pass   8: suminf.    0.34005 (2) obj. 8.52319e+06 iterations 3
Cbc0038I Pass   9: suminf.    0.34005 (2) obj. 8.52319e+06 iterations 0
Cbc0038I Pass  10: suminf.    0.39515 (3) obj. 8.52319e+06 iterations 2
Cbc0038I Pass  11: suminf.    0.39515 (3) obj. 8.52319e+06 iterations 0
Cbc0038I Pass  12: suminf.    0.39515 (3) obj. 8.52319e+06 iterations 0
Cbc0038I Pass  13: suminf.    0.39515 (3) obj. 8.52319e+06 iterations 0
Cbc0038I Pass  14: suminf.    0.39515 (3) obj. 8.52319e+06 iterations 0
Cbc0038I Pass  15: suminf.    0.39515 (3) obj. 8.52319e+06 iterations 0
Cbc0038I Pass  16: suminf.    0.39515 (3) obj. 8.52319e+06 iterations 0
Cbc0038I Pass  17: suminf.    0.39515 (3) obj. 8.52319e+06 iterations 0
Cbc0038I Pass  18: suminf.    0.39515 (3) obj. 8.52319e+06 iterations 0
Cbc0038I Pass  19: suminf.    0.39515 (3) obj. 8.52319e+06 iterations 0
Cbc0038I Pass  20: suminf.    0.39515 (3) obj. 8.52319e+06 iterations 0
Cbc0038I Pass  21: suminf.    0.39515 (3) obj. 8.52319e+06 iterations 0
Cbc0038I Pass  22: suminf.    0.39515 (3) obj. 8.52319e+06 iterations 0
Cbc0038I Pass  23: suminf.    0.39515 (3) obj. 8.52319e+06 iterations 0
Cbc0038I Pass  24: suminf.    0.39515 (3) obj. 8.52319e+06 iterations 0
Cbc0038I Pass  25: suminf.    0.39515 (3) obj. 8.52319e+06 iterations 0
Cbc0038I Pass  26: suminf.    0.39515 (3) obj. 8.52319e+06 iterations 0
Cbc0038I Pass  27: suminf.    0.39515 (3) obj. 8.52319e+06 iterations 0
Cbc0038I Pass  28: suminf.    0.39515 (3) obj. 8.52319e+06 iterations 0
Cbc0038I Pass  29: suminf.    0.39515 (3) obj. 8.52319e+06 iterations 0
Cbc0038I Pass  30: suminf.    0.39515 (3) obj. 8.52319e+06 iterations 0
Cbc0038I Pass  31: suminf.    0.39515 (3) obj. 8.52319e+06 iterations 0
Cbc0038I No solution found this major pass
Cbc0038I Before mini branch and bound, 0 integers at bound fixed and 2 continuous
Cbc0038I Full problem 6 rows 12 columns, reduced to 6 rows 10 columns
Cbc0038I Mini branch and bound did not improve solution (0.00 seconds)
Cbc0038I After 0.00 seconds - Feasibility pump exiting with objective of 9.33361e+06 - took 0.00 seconds
Cbc0012I Integer solution of 9333608.2 found by feasibility pump after 0 iterations and 0 nodes (0.00 seconds)
Cbc0031I 2 added rows had average density of 3
Cbc0013I At root node, 4 cuts changed objective from 1229395 to 9333608.2 in 1 passes
Cbc0014I Cut generator 0 (Probing) - 0 row cuts average 0.0 elements, 1 column cuts (1 active)  in 0.000 seconds - new frequency is 1
Cbc0014I Cut generator 1 (Gomory) - 2 row cuts average 3.0 elements, 0 column cuts (0 active)  in 0.000 seconds - new frequency is 1
Cbc0014I Cut generator 2 (Knapsack) - 0 row cuts average 0.0 elements, 0 column cuts (0 active)  in 0.000 seconds - new frequency is -100
Cbc0014I Cut generator 3 (Clique) - 0 row cuts average 0.0 elements, 0 column cuts (0 active)  in 0.000 seconds - new frequency is -100
Cbc0014I Cut generator 4 (MixedIntegerRounding2) - 0 row cuts average 0.0 elements, 0 column cuts (0 active)  in 0.000 seconds - new frequency is -100
Cbc0014I Cut generator 5 (FlowCover) - 0 row cuts average 0.0 elements, 0 column cuts (0 active)  in 0.000 seconds - new frequency is -100
Cbc0014I Cut generator 6 (TwoMirCuts) - 2 row cuts average 3.0 elements, 0 column cuts (0 active)  in 0.000 seconds - new frequency is 1
Cbc0001I Search completed - best objective 9333608.25, took 3 iterations and 0 nodes (0.00 seconds)
Cbc0035I Maximum depth 0, 0 variables fixed on reduced cost
Cuts at root node changed objective from 1.22939e+06 to 9.33361e+06
Probing was tried 1 times and created 1 cuts of which 0 were active after adding rounds of cuts (0.000 seconds)
Gomory was tried 1 times and created 2 cuts of which 0 were active after adding rounds of cuts (0.000 seconds)
Knapsack was tried 1 times and created 0 cuts of which 0 were active after adding rounds of cuts (0.000 seconds)
Clique was tried 1 times and created 0 cuts of which 0 were active after adding rounds of cuts (0.000 seconds)
MixedIntegerRounding2 was tried 1 times and created 0 cuts of which 0 were active after adding rounds of cuts (0.000 seconds)
FlowCover was tried 1 times and created 0 cuts of which 0 were active after adding rounds of cuts (0.000 seconds)
TwoMirCuts was tried 1 times and created 2 cuts of which 0 were active after adding rounds of cuts (0.000 seconds)
ZeroHalf was tried 1 times and created 0 cuts of which 0 were active after adding rounds of cuts (0.000 seconds)

Result - Optimal solution found

Objective value:                9333608.25000000
Enumerated nodes:               0
Total iterations:               3
Time (CPU seconds):             0.00
Time (Wallclock seconds):       0.00

Option for printingOptions changed from normal to all
Total time (CPU seconds):       0.00   (Wallclock seconds):       0.00

